c description: Random 3-CNF over 22 variables and 94 clauses
c generator: CNFgen (0.9.2)
c copyright: (C) 2012-2022 Massimo Lauria <massimo.lauria@uniroma1.it>
c url: https://massimolauria.net/cnfgen
c command line: cnfgen --output CNF_4.28/22_bit_94_132.cnf randkcnf 3 22 94
c
p cnf 22 94
-8 -9 20 0
6 -8 -14 0
-2 9 14 0
4 -6 -9 0
-2 -3 11 0
-1 2 10 0
-17 -21 -22 0
-2 -15 17 0
-10 14 -16 0
12 -18 20 0
-15 17 -20 0
-19 21 -22 0
5 -17 21 0
9 12 -16 0
-3 4 -18 0
14 -18 20 0
2 -6 11 0
1 -9 -22 0
-4 -11 19 0
4 -10 15 0
-2 -19 -21 0
6 -14 18 0
10 -13 -20 0
3 -7 8 0
-7 8 20 0
-5 -12 -20 0
-5 -10 -17 0
4 12 16 0
-4 -10 12 0
-4 13 14 0
1 -3 22 0
-5 -14 18 0
10 -13 -22 0
-8 10 19 0
-6 13 20 0
5 -21 -22 0
2 12 14 0
6 -10 16 0
-8 -18 -20 0
1 6 7 0
4 -5 18 0
-5 -8 17 0
3 13 14 0
-11 -15 -19 0
15 18 -19 0
3 -4 -9 0
-3 4 -12 0
-2 -11 -20 0
-1 3 -22 0
6 15 -18 0
-4 -9 14 0
6 -15 17 0
8 -9 13 0
5 6 7 0
4 8 -19 0
4 -6 13 0
4 -12 22 0
3 -4 -6 0
-13 -16 19 0
4 -16 17 0
-11 12 -14 0
4 -5 -20 0
-6 -14 20 0
3 7 -17 0
-6 -11 -19 0
-1 7 -15 0
5 12 19 0
-11 -21 -22 0
6 -8 -10 0
2 11 -13 0
-2 6 21 0
-5 -14 -21 0
3 -14 20 0
1 -3 11 0
9 12 -15 0
-10 -13 -22 0
5 -18 -19 0
-11 -19 20 0
6 11 13 0
-2 11 -17 0
10 -15 19 0
1 13 17 0
-5 17 -18 0
2 10 14 0
4 -14 20 0
-4 -6 12 0
-5 -7 16 0
-10 -12 -22 0
11 15 22 0
13 -16 -22 0
4 15 19 0
-1 -5 -7 0
-4 14 21 0
8 10 -15 0
